(set-logic QF_S)
(declare-fun var0 () String)
(declare-fun var1 () String)
(declare-fun var2 () String)
(declare-fun var3 () String)
(declare-fun var4 () String)
(declare-fun var5 () String)
(declare-fun var6 () String)
(declare-fun var7 () String)
(declare-fun var8 () String)
(declare-fun var9 () String)
(declare-fun var10 () String)
(declare-fun var11 () String)
(declare-fun var12 () String)
(declare-fun var13 () String)
(declare-fun var14 () String)
(declare-fun var15 () String)
(declare-fun var16 () String)
(declare-fun var17 () String)
(declare-fun var18 () String)
(declare-fun var19 () String)
(declare-fun var20 () String)
(declare-fun var21 () String)
(declare-fun var22 () String)
(declare-fun var23 () String)
(declare-fun var24 () String)
(declare-fun var25 () String)
(declare-fun var26 () String)
(declare-fun var27 () String)
(declare-fun var28 () String)
(declare-fun var29 () String)
(declare-fun var30 () String)
(declare-fun var31 () String)
(declare-fun var32 () String)
(declare-fun var33 () String)
(declare-fun var34 () String)
(declare-fun var35 () String)
(declare-fun var36 () String)
(declare-fun var37 () String)
(declare-fun var38 () String)
(declare-fun var39 () String)
(declare-fun var40 () String)
(declare-fun var41 () String)
(declare-fun var42 () String)
(declare-fun var43 () String)
(declare-fun var44 () String)
(declare-fun var45 () String)
(declare-fun var46 () String)
(declare-fun var47 () String)
(declare-fun var48 () String)
(declare-fun var49 () String)
(declare-fun var50 () String)
(declare-fun var51 () String)
(declare-fun var52 () String)
(declare-fun var53 () String)
(declare-fun var54 () String)
(declare-fun var55 () String)
(declare-fun var56 () String)
(declare-fun var57 () String)
(declare-fun var58 () String)
(declare-fun var59 () String)
(declare-fun var60 () String)
(assert (= var0 (Concat var1 var2)))
(assert (= var2 (Concat var3 var4)))
(assert (= var4 (Concat var5 var6)))
(assert (= var6 (Concat var7 var8)))
(assert (= var8 (Concat var9 var10)))
(assert (= var10 (Concat var11 var12)))
(assert (= var12 (Concat var13 var14)))
(assert (= var14 (Concat var15 var16)))
(assert (= var16 (Concat var17 var18)))
(assert (= var18 (Concat var19 var20)))
(assert (= var20 (Concat var21 var22)))
(assert (= var22 (Concat var23 var24)))
(assert (= var24 (Concat var25 var26)))
(assert (= var26 (Concat var27 var28)))
(assert (= var28 (Concat var29 var30)))
(assert (= var30 (Concat var31 var32)))
(assert (= var32 (Concat var33 var34)))
(assert (= var34 (Concat var35 var36)))
(assert (= var36 (Concat var37 var38)))
(assert (= var38 (Concat var39 var40)))
(assert (= var40 (Concat var41 var42)))
(assert (= var42 (Concat var43 var44)))
(assert (= var44 (Concat var45 var46)))
(assert (= var46 (Concat var47 var48)))
(assert (= var48 (Concat var49 var50)))
(assert (= var50 (Concat var51 var52)))
(assert (= var52 (Concat var53 var54)))
(assert (= var54 (Concat var55 var56)))
(assert (= var56 (Concat var57 var58)))
(assert (= var58 (Concat var59 var60)))
(assert (= var0 "solution"))
(assert (= "H" (CharAt var46 828)))
(assert (= "/" (CharAt var32 580)))
(assert (= "Z" (CharAt var31 782)))
(assert (= "v" (CharAt var42 544)))
(assert (= ":" (CharAt var31 12)))
(assert (= "k" (CharAt var23 27)))
(assert (= "W" (CharAt var39 196)))
(assert (= "Y" (CharAt var24 119)))
(assert (= "D" (CharAt var5 728)))
(assert (= "'" (CharAt var27 111)))
(assert (= "(" (CharAt var14 773)))
(assert (= "@" (CharAt var4 895)))
(assert (= "i" (CharAt var29 924)))
(assert (= ">" (CharAt var47 952)))
(assert (= "!" (CharAt var13 521)))
(assert (= "z" (CharAt var50 993)))
(assert (= "q" (CharAt var30 818)))
(assert (= "{" (CharAt var50 776)))
(assert (= "g" (CharAt var27 767)))
(assert (= "n" (CharAt var1 597)))
(assert (= "m" (CharAt var11 522)))
(assert (= "M" (CharAt var17 433)))
(assert (= "q" (CharAt var7 650)))
(assert (= "?" (CharAt var21 596)))
(assert (= "!" (CharAt var4 290)))
(assert (= "j" (CharAt var55 124)))
(assert (= "!" (CharAt var38 199)))
(assert (= "_" (CharAt var4 70)))
(assert (= "p" (CharAt var7 605)))
(assert (= "m" (CharAt var6 350)))
(assert (= "z" (CharAt var51 533)))
(assert (= "<" (CharAt var35 350)))
(assert (= "=" (CharAt var6 944)))
(assert (= "[" (CharAt var60 239)))
(assert (= "Q" (CharAt var31 300)))
(assert (= "n" (CharAt var51 833)))
(assert (= "Y" (CharAt var37 826)))
(assert (= "9" (CharAt var4 371)))
(assert (= "D" (CharAt var40 688)))
(assert (= "w" (CharAt var45 202)))
(assert (= "I" (CharAt var48 274)))
(assert (= ">" (CharAt var10 177)))
(assert (= "E" (CharAt var57 922)))
(assert (= "k" (CharAt var27 402)))
(assert (= "f" (CharAt var54 393)))
(assert (= "o" (CharAt var41 84)))
(assert (= "8" (CharAt var15 208)))
(assert (= "/" (CharAt var52 436)))
(assert (= "q" (CharAt var17 974)))
(assert (= "A" (CharAt var51 202)))
(assert (= "t" (CharAt var59 706)))
(assert (= "A" (CharAt var26 74)))
(assert (= "-" (CharAt var2 574)))
(assert (= "q" (CharAt var47 502)))
(assert (= "j" (CharAt var39 355)))
(assert (= "\\" (CharAt var28 576)))
(assert (= "E" (CharAt var54 172)))
(assert (= "4" (CharAt var27 133)))
(assert (= "9" (CharAt var47 310)))
(assert (= "M" (CharAt var4 341)))
(assert (= "~" (CharAt var47 634)))
(assert (= "r" (CharAt var58 782)))
(assert (= "p" (CharAt var12 732)))
(assert (= "Q" (CharAt var40 936)))
(assert (= "k" (CharAt var7 522)))
(assert (= "&" (CharAt var43 36)))
(assert (= "#" (CharAt var3 418)))
(assert (= "M" (CharAt var19 728)))
(assert (= ";" (CharAt var10 787)))
(assert (= "g" (CharAt var50 872)))
(assert (= "B" (CharAt var19 283)))
(assert (= "$" (CharAt var47 965)))
(assert (= "z" (CharAt var6 302)))
(assert (= "g" (CharAt var29 724)))
(assert (= "j" (CharAt var27 469)))
(assert (= "M" (CharAt var59 738)))
(assert (= ")" (CharAt var20 37)))
(assert (= "." (CharAt var60 595)))
(assert (= "B" (CharAt var46 405)))
(assert (= "j" (CharAt var21 732)))
(assert (= "`" (CharAt var4 736)))
(assert (= "`" (CharAt var55 759)))
(assert (= "Z" (CharAt var31 915)))
(assert (= "|" (CharAt var37 504)))
(assert (= "P" (CharAt var4 141)))
(assert (= "N" (CharAt var58 631)))
(assert (= "U" (CharAt var53 374)))
(assert (= "L" (CharAt var48 387)))
(assert (= "b" (CharAt var29 485)))
(assert (= "a" (CharAt var32 707)))
(assert (= "8" (CharAt var53 556)))
(assert (= "b" (CharAt var3 48)))
(assert (= "&" (CharAt var15 428)))
(assert (= "Z" (CharAt var3 816)))
(assert (= ">" (CharAt var2 416)))
(assert (= "`" (CharAt var13 396)))
(assert (= "&" (CharAt var28 737)))
(assert (= "p" (CharAt var9 879)))
(assert (= "X" (CharAt var30 945)))
(assert (= "E" (CharAt var3 246)))
(assert (= ";" (CharAt var5 416)))
(assert (= "G" (CharAt var15 994)))
(assert (= "I" (CharAt var39 226)))
(assert (= "x" (CharAt var49 387)))
(assert (= "\"" (CharAt var57 5)))
(assert (= "y" (CharAt var26 25)))
(assert (= "W" (CharAt var28 630)))
(assert (= "%" (CharAt var59 184)))
(assert (= "L" (CharAt var51 704)))
(assert (= "|" (CharAt var22 723)))
(assert (= "B" (CharAt var18 549)))
(assert (= "8" (CharAt var0 459)))
(assert (= "H" (CharAt var52 279)))
(assert (= "n" (CharAt var16 474)))
(assert (= "5" (CharAt var56 971)))
(assert (= "L" (CharAt var60 650)))
(assert (= "t" (CharAt var38 172)))
(assert (= "R" (CharAt var3 445)))
(assert (= "b" (CharAt var9 475)))
(assert (= "9" (CharAt var55 67)))
(assert (= ")" (CharAt var42 609)))
(assert (= "w" (CharAt var2 85)))
(assert (= "a" (CharAt var57 917)))
(assert (= "|" (CharAt var14 172)))
(assert (= "." (CharAt var1 173)))
(assert (= "A" (CharAt var47 141)))
(assert (= ":" (CharAt var41 717)))
(assert (= "l" (CharAt var49 24)))
(assert (= "9" (CharAt var0 921)))
(assert (= "`" (CharAt var32 59)))
(assert (= "N" (CharAt var44 878)))
(assert (= "P" (CharAt var56 548)))
(assert (= "u" (CharAt var43 581)))
(assert (= "S" (CharAt var27 796)))
(assert (= "J" (CharAt var57 655)))
(assert (= "!" (CharAt var6 647)))
(assert (= "b" (CharAt var3 457)))
(assert (= "i" (CharAt var54 404)))
(assert (= "~" (CharAt var2 623)))
(assert (= "t" (CharAt var51 998)))
(assert (= "V" (CharAt var4 347)))
(assert (= "A" (CharAt var26 841)))
(assert (= "0" (CharAt var22 566)))
(assert (= "E" (CharAt var18 585)))
(assert (= "." (CharAt var43 870)))
(assert (= "g" (CharAt var41 815)))
(assert (= ":" (CharAt var51 839)))
(assert (= "S" (CharAt var43 164)))
(assert (= "H" (CharAt var58 657)))
(assert (= ")" (CharAt var3 402)))
(assert (= "0" (CharAt var38 406)))
(assert (= "-" (CharAt var24 697)))
(assert (= "/" (CharAt var45 766)))
(assert (= "'" (CharAt var12 474)))
(assert (= ")" (CharAt var59 648)))
(assert (= ")" (CharAt var13 552)))
(assert (= "9" (CharAt var13 465)))
(assert (= "P" (CharAt var13 248)))
(assert (= "A" (CharAt var47 570)))
(assert (= "l" (CharAt var15 715)))
(assert (= "5" (CharAt var2 336)))
(assert (= "]" (CharAt var32 705)))
(assert (= "v" (CharAt var43 821)))
(assert (= "Z" (CharAt var27 787)))
(assert (= "a" (CharAt var29 468)))
(assert (= "z" (CharAt var47 793)))
(assert (= "&" (CharAt var21 86)))
(assert (= "5" (CharAt var15 648)))
(assert (= "E" (CharAt var23 115)))
(assert (= "A" (CharAt var22 322)))
(assert (= "?" (CharAt var55 223)))
(assert (= "^" (CharAt var48 302)))
(assert (= "y" (CharAt var50 858)))
(assert (= "*" (CharAt var46 169)))
(assert (= "{" (CharAt var42 914)))
(assert (= "W" (CharAt var38 338)))
(assert (= "K" (CharAt var19 231)))
(assert (= "E" (CharAt var36 391)))
(assert (= "k" (CharAt var4 113)))
(assert (= "s" (CharAt var24 624)))
(assert (= "G" (CharAt var43 354)))
(assert (= "@" (CharAt var11 517)))
(assert (= "^" (CharAt var51 408)))
(assert (= "5" (CharAt var43 314)))
(assert (= "2" (CharAt var22 27)))
(assert (= "0" (CharAt var40 562)))
(assert (= "C" (CharAt var53 864)))
(assert (= "}" (CharAt var52 299)))
(assert (= "(" (CharAt var22 589)))
(assert (= "$" (CharAt var33 860)))
(assert (= "6" (CharAt var46 391)))
(assert (= "O" (CharAt var49 804)))
(assert (= "m" (CharAt var50 945)))
(assert (= "(" (CharAt var51 475)))
(assert (= "@" (CharAt var6 599)))
(assert (= "!" (CharAt var36 568)))
(assert (= "\"" (CharAt var22 920)))
(assert (= "V" (CharAt var31 983)))
(assert (= "Y" (CharAt var20 266)))
(assert (= "a" (CharAt var11 719)))
(assert (= "F" (CharAt var5 386)))
(assert (= "F" (CharAt var46 667)))
(assert (= "i" (CharAt var53 153)))
(assert (= "d" (CharAt var53 318)))
(assert (= "L" (CharAt var17 880)))
(assert (= "7" (CharAt var53 789)))
(assert (= "T" (CharAt var25 545)))
(assert (= "p" (CharAt var53 163)))
(assert (= "(" (CharAt var15 122)))
(assert (= "|" (CharAt var30 425)))
(assert (= "4" (CharAt var47 455)))
(assert (= "-" (CharAt var54 620)))
(assert (= "_" (CharAt var31 81)))
(assert (= "N" (CharAt var9 449)))
(assert (= "3" (CharAt var9 571)))
(assert (= "8" (CharAt var2 123)))
(assert (= "|" (CharAt var8 826)))
(assert (= "\"" (CharAt var7 112)))
(assert (= "Y" (CharAt var32 396)))
(assert (= "M" (CharAt var13 363)))
(assert (= "?" (CharAt var40 722)))
(assert (= "t" (CharAt var25 298)))
(assert (= "Y" (CharAt var53 502)))
(assert (= "g" (CharAt var28 834)))
(assert (= "$" (CharAt var11 918)))
(assert (= "r" (CharAt var20 395)))
(assert (= "," (CharAt var21 17)))
(assert (= "J" (CharAt var57 809)))
(assert (= "U" (CharAt var18 301)))
(assert (= "m" (CharAt var45 178)))
(assert (= "u" (CharAt var47 476)))
(assert (= "'" (CharAt var6 968)))
(assert (= "g" (CharAt var27 531)))
(assert (= "(" (CharAt var30 141)))
(assert (= "i" (CharAt var50 670)))
(assert (= "W" (CharAt var29 235)))
(assert (= "?" (CharAt var1 431)))
(assert (= "}" (CharAt var14 534)))
(assert (= "3" (CharAt var25 991)))
(assert (= "_" (CharAt var16 150)))
(assert (= ">" (CharAt var5 135)))
(assert (= "{" (CharAt var16 922)))
(assert (= "O" (CharAt var5 213)))
(assert (= "M" (CharAt var22 954)))
(assert (= "6" (CharAt var26 992)))
(assert (= "+" (CharAt var8 744)))
(assert (= "z" (CharAt var18 173)))
(assert (= "<" (CharAt var37 39)))
(assert (= "Y" (CharAt var13 733)))
(assert (= "=" (CharAt var0 340)))
(assert (= "2" (CharAt var9 935)))
(assert (= "6" (CharAt var6 163)))
(assert (= "D" (CharAt var2 242)))
(assert (= "Q" (CharAt var9 394)))
(assert (= "$" (CharAt var56 322)))
(assert (= "n" (CharAt var13 75)))
(assert (= ";" (CharAt var1 714)))
(assert (= ";" (CharAt var57 355)))
(assert (= "l" (CharAt var17 849)))
(assert (= "!" (CharAt var52 417)))
(assert (= "o" (CharAt var28 14)))
(assert (= "j" (CharAt var1 430)))
(assert (= "a" (CharAt var56 899)))
(assert (= "T" (CharAt var19 100)))
(assert (= "E" (CharAt var22 529)))
(assert (= "G" (CharAt var38 577)))
(assert (= "+" (CharAt var28 966)))
(assert (= "F" (CharAt var36 948)))
(assert (= ";" (CharAt var33 626)))
(assert (= "}" (CharAt var54 390)))
(assert (= "?" (CharAt var26 932)))
(assert (= "F" (CharAt var45 692)))
(assert (= "F" (CharAt var42 415)))
(assert (= "}" (CharAt var41 180)))
(assert (= ":" (CharAt var24 343)))
(assert (= ")" (CharAt var11 176)))
(assert (= "i" (CharAt var1 929)))
(assert (= "5" (CharAt var37 149)))
(assert (= "\"" (CharAt var34 539)))
(assert (= "J" (CharAt var56 791)))
(assert (= "<" (CharAt var39 227)))
(assert (= "[" (CharAt var16 289)))
(assert (= "6" (CharAt var25 867)))
(assert (= "\\" (CharAt var22 257)))
(assert (= "P" (CharAt var51 79)))
(assert (= "<" (CharAt var36 79)))
(assert (= "J" (CharAt var24 424)))
(assert (= "z" (CharAt var10 749)))
(assert (= "8" (CharAt var12 21)))
(assert (= "T" (CharAt var8 698)))
(assert (= "G" (CharAt var35 375)))
(assert (= "O" (CharAt var34 165)))
(assert (= "!" (CharAt var10 178)))
(assert (= "\\" (CharAt var22 189)))
(assert (= "A" (CharAt var45 720)))
(assert (= "N" (CharAt var39 992)))
(assert (= "," (CharAt var30 234)))
(assert (= ")" (CharAt var7 10)))
(assert (= "K" (CharAt var28 198)))
(assert (= "I" (CharAt var43 764)))
(assert (= "@" (CharAt var1 531)))
(assert (= "I" (CharAt var15 471)))
(assert (= "d" (CharAt var52 247)))
(assert (= "l" (CharAt var40 119)))
(assert (= "'" (CharAt var15 271)))
(assert (= "2" (CharAt var56 865)))
(assert (= "9" (CharAt var36 283)))
(assert (= "9" (CharAt var29 292)))
(assert (= "|" (CharAt var9 27)))
(assert (= "N" (CharAt var6 796)))
(assert (= "p" (CharAt var19 257)))
(assert (= "w" (CharAt var10 209)))
(assert (= "_" (CharAt var18 459)))
(assert (= "z" (CharAt var26 830)))
(assert (= "g" (CharAt var1 516)))
(assert (= "d" (CharAt var44 496)))
(assert (= "." (CharAt var19 706)))
(assert (= "R" (CharAt var26 434)))
(assert (= "x" (CharAt var4 772)))
(assert (= "9" (CharAt var54 31)))
(assert (= "Z" (CharAt var33 806)))
(assert (= "i" (CharAt var36 451)))
(assert (= "z" (CharAt var53 877)))
(assert (= "G" (CharAt var0 356)))
(assert (= "w" (CharAt var23 634)))
(assert (= "a" (CharAt var37 845)))
(assert (= "O" (CharAt var17 750)))
(assert (= "@" (CharAt var57 706)))
(assert (= "!" (CharAt var11 269)))
(assert (= "%" (CharAt var34 362)))
(assert (= "P" (CharAt var7 714)))
(assert (= "1" (CharAt var32 410)))
(assert (= "L" (CharAt var57 528)))
(assert (= "~" (CharAt var60 861)))
(assert (= "8" (CharAt var42 755)))
(assert (= "b" (CharAt var14 4)))
(assert (= "3" (CharAt var25 204)))
(assert (= "5" (CharAt var58 678)))
(assert (= "R" (CharAt var5 366)))
(assert (= "y" (CharAt var36 362)))
(assert (= "c" (CharAt var43 143)))
(assert (= "T" (CharAt var22 160)))
(assert (= "," (CharAt var31 368)))
(assert (= "7" (CharAt var10 980)))
(assert (= "n" (CharAt var2 617)))
(assert (= "@" (CharAt var29 161)))
(assert (= "." (CharAt var21 524)))
(assert (= "!" (CharAt var54 72)))
(assert (= "7" (CharAt var13 670)))
(assert (= "{" (CharAt var28 626)))
(assert (= "t" (CharAt var3 57)))
(assert (= "`" (CharAt var18 909)))
(assert (= "6" (CharAt var42 571)))
(assert (= "F" (CharAt var2 786)))
(assert (= "8" (CharAt var47 731)))
(assert (= "h" (CharAt var28 534)))
(assert (= "5" (CharAt var40 202)))
(assert (= "X" (CharAt var35 438)))
(assert (= "4" (CharAt var20 949)))
(assert (= "*" (CharAt var38 997)))
(assert (= "5" (CharAt var12 185)))
(assert (= "h" (CharAt var2 40)))
(assert (= "|" (CharAt var44 860)))
(assert (= "z" (CharAt var40 15)))
(assert (= "[" (CharAt var48 956)))
(assert (= "5" (CharAt var13 532)))
(assert (= "S" (CharAt var30 339)))
(assert (= "f" (CharAt var18 370)))
(assert (= "w" (CharAt var46 750)))
(assert (= "&" (CharAt var43 737)))
(assert (= "D" (CharAt var53 634)))
(assert (= "V" (CharAt var37 291)))
(assert (= "1" (CharAt var56 909)))
(assert (= "V" (CharAt var53 943)))
(assert (= "#" (CharAt var15 0)))
(assert (= "i" (CharAt var29 893)))
(assert (= "w" (CharAt var58 111)))
(assert (= "p" (CharAt var41 263)))
(assert (= "k" (CharAt var9 401)))
(assert (= ")" (CharAt var8 931)))
(assert (= "v" (CharAt var42 567)))
(assert (= "K" (CharAt var8 283)))
(assert (= "E" (CharAt var7 365)))
(assert (= "H" (CharAt var38 155)))
(assert (= "\\" (CharAt var14 291)))
(assert (= "u" (CharAt var17 365)))
(assert (= "H" (CharAt var6 414)))
(assert (= "<" (CharAt var14 411)))
(assert (= ")" (CharAt var44 884)))
(assert (= "p" (CharAt var33 874)))
(assert (= "&" (CharAt var50 979)))
(assert (= "Q" (CharAt var31 218)))
(assert (= "B" (CharAt var0 174)))
(assert (= "{" (CharAt var15 684)))
(assert (= "J" (CharAt var36 192)))
(assert (= "o" (CharAt var52 826)))
(assert (= "O" (CharAt var40 455)))
(assert (= "," (CharAt var20 95)))
(assert (= "l" (CharAt var57 427)))
(assert (= "]" (CharAt var40 335)))
(assert (= "'" (CharAt var37 147)))
(assert (= "`" (CharAt var41 607)))
(assert (= "v" (CharAt var10 245)))
(assert (= "{" (CharAt var4 5)))
(assert (= "Y" (CharAt var38 874)))
(assert (= "d" (CharAt var55 340)))
(assert (= "{" (CharAt var28 785)))
(assert (= "~" (CharAt var10 263)))
(assert (= "%" (CharAt var36 118)))
(assert (= "T" (CharAt var39 163)))
(assert (= "5" (CharAt var20 810)))
(assert (= "S" (CharAt var12 575)))
(assert (= "V" (CharAt var48 834)))
(assert (= "}" (CharAt var16 478)))
(assert (= "#" (CharAt var25 753)))
(assert (= "S" (CharAt var46 883)))
(assert (= "_" (CharAt var15 415)))
(assert (= "8" (CharAt var5 39)))
(assert (= "T" (CharAt var18 539)))
(assert (= "O" (CharAt var27 975)))
(assert (= "G" (CharAt var40 62)))
(assert (= "\"" (CharAt var18 671)))
(assert (= "'" (CharAt var5 724)))
(assert (= "c" (CharAt var9 86)))
(assert (= "M" (CharAt var35 596)))
(assert (= "-" (CharAt var40 516)))
(assert (= "v" (CharAt var19 734)))
(assert (= "`" (CharAt var39 69)))
(assert (= "j" (CharAt var15 276)))
(assert (= "+" (CharAt var56 620)))
(assert (= "=" (CharAt var34 953)))
(assert (= "7" (CharAt var19 752)))
(assert (= "1" (CharAt var39 699)))
(assert (= "H" (CharAt var55 54)))
(assert (= "a" (CharAt var7 792)))
(assert (= "q" (CharAt var46 918)))
(assert (= "b" (CharAt var7 423)))
(assert (= "K" (CharAt var57 351)))
(assert (= "J" (CharAt var53 600)))
(assert (= "G" (CharAt var56 337)))
(assert (= "L" (CharAt var25 124)))
(assert (= "4" (CharAt var40 381)))
(assert (= "?" (CharAt var12 843)))
(assert (= "Q" (CharAt var7 920)))
(assert (= "e" (CharAt var39 842)))
(assert (= "x" (CharAt var14 183)))
(assert (= "g" (CharAt var18 62)))
(assert (= "y" (CharAt var40 290)))
(assert (= "C" (CharAt var47 939)))
(assert (= "D" (CharAt var37 60)))
(assert (= "}" (CharAt var47 12)))
(assert (= "=" (CharAt var41 93)))
(assert (= "m" (CharAt var15 571)))
(assert (= "G" (CharAt var7 175)))
(assert (= "0" (CharAt var28 511)))
(assert (= "6" (CharAt var55 527)))
(assert (= "S" (CharAt var11 444)))
(assert (= "," (CharAt var41 427)))
(assert (= "=" (CharAt var60 766)))
(assert (= "/" (CharAt var19 853)))
(assert (= "o" (CharAt var24 632)))
(assert (= "&" (CharAt var58 54)))
(assert (= "Z" (CharAt var44 950)))
(assert (= "&" (CharAt var32 506)))
(assert (= "5" (CharAt var36 412)))
(assert (= "v" (CharAt var36 441)))
(assert (= "K" (CharAt var28 280)))
(assert (= "Y" (CharAt var30 217)))
(assert (= "." (CharAt var60 478)))
(assert (= "g" (CharAt var23 290)))
(assert (= "`" (CharAt var46 16)))
(assert (= "{" (CharAt var48 717)))
(assert (= "F" (CharAt var30 479)))
(assert (= "Q" (CharAt var14 518)))
(assert (= "d" (CharAt var38 501)))
(assert (= "1" (CharAt var57 249)))
(assert (= "\\" (CharAt var56 748)))
(assert (= "X" (CharAt var37 861)))
(assert (= "v" (CharAt var25 412)))
(assert (= ":" (CharAt var46 796)))
(assert (= "D" (CharAt var20 34)))
(assert (= "," (CharAt var15 288)))
(assert (= "S" (CharAt var46 625)))
(assert (= ":" (CharAt var34 505)))
(assert (= "M" (CharAt var45 690)))
(assert (= "~" (CharAt var9 794)))
(assert (= "h" (CharAt var25 897)))
(assert (= "L" (CharAt var60 682)))
(assert (= "I" (CharAt var46 49)))
(assert (= "V" (CharAt var26 402)))
(assert (= "y" (CharAt var10 684)))
(assert (= "J" (CharAt var17 979)))
(assert (= "%" (CharAt var25 351)))
(assert (= "f" (CharAt var32 214)))
(assert (= "P" (CharAt var33 648)))
(assert (= "R" (CharAt var51 868)))
(assert (= "^" (CharAt var38 534)))
(assert (= "S" (CharAt var30 812)))
(assert (= "N" (CharAt var15 937)))
(assert (= "f" (CharAt var37 429)))
(assert (= "5" (CharAt var36 309)))
(assert (= "?" (CharAt var47 314)))
(assert (= "C" (CharAt var60 499)))
(assert (= "L" (CharAt var24 118)))
(assert (= "k" (CharAt var56 324)))
(assert (= "(" (CharAt var60 700)))
(assert (= ">" (CharAt var13 535)))
(assert (= "g" (CharAt var16 27)))
(assert (= "7" (CharAt var43 419)))
(assert (= "z" (CharAt var10 268)))
(assert (= "@" (CharAt var25 449)))
(assert (= "@" (CharAt var24 901)))
(assert (= "r" (CharAt var37 302)))
(assert (= "F" (CharAt var54 787)))
(assert (= "," (CharAt var9 737)))
(assert (= "/" (CharAt var47 184)))
(assert (= "0" (CharAt var37 605)))
(assert (= "&" (CharAt var41 977)))
(assert (= "u" (CharAt var23 572)))
(assert (= "[" (CharAt var1 184)))
(assert (= "a" (CharAt var41 675)))
(assert (= "F" (CharAt var14 52)))
(assert (= "=" (CharAt var46 285)))
(assert (= "_" (CharAt var55 713)))
(assert (= "s" (CharAt var4 467)))
(assert (= "?" (CharAt var18 553)))
(assert (= "*" (CharAt var12 51)))
(assert (= "_" (CharAt var8 366)))
(assert (= "j" (CharAt var40 536)))
(assert (= "8" (CharAt var52 256)))
(assert (= "2" (CharAt var15 798)))
(assert (= "v" (CharAt var57 456)))
(assert (= "j" (CharAt var46 642)))
(assert (= "%" (CharAt var21 945)))
(assert (= "C" (CharAt var25 403)))
(assert (= "f" (CharAt var53 903)))
(assert (= "j" (CharAt var12 373)))
(assert (= "t" (CharAt var56 704)))
(assert (= "R" (CharAt var59 377)))
(assert (= "r" (CharAt var9 106)))
(assert (= "-" (CharAt var19 49)))
(assert (= "e" (CharAt var37 704)))
(assert (= "k" (CharAt var22 893)))
(assert (= "M" (CharAt var16 618)))
(assert (= "k" (CharAt var0 848)))
(assert (= "2" (CharAt var28 291)))
(assert (= "t" (CharAt var10 621)))
(assert (= "h" (CharAt var33 933)))
(assert (= "J" (CharAt var22 95)))
(assert (= "}" (CharAt var3 211)))
(assert (= "~" (CharAt var54 95)))
(assert (= "(" (CharAt var16 522)))
(assert (= "'" (CharAt var10 631)))
(assert (= "^" (CharAt var21 785)))
(assert (= "b" (CharAt var47 168)))
(assert (= "}" (CharAt var3 288)))
(assert (= "Y" (CharAt var31 912)))
(assert (= "(" (CharAt var20 230)))
(assert (= "J" (CharAt var51 383)))
(assert (= ";" (CharAt var37 390)))
(assert (= "x" (CharAt var3 183)))
(assert (= "+" (CharAt var39 209)))
(assert (= "M" (CharAt var26 683)))
(assert (= "v" (CharAt var53 82)))
(assert (= "z" (CharAt var7 803)))
(assert (= "Z" (CharAt var11 728)))
(assert (= "k" (CharAt var29 116)))
(assert (= "," (CharAt var29 688)))
(assert (= "j" (CharAt var56 985)))
(assert (= "K" (CharAt var56 582)))
(assert (= "r" (CharAt var6 980)))
(assert (= "_" (CharAt var46 63)))
(assert (= "i" (CharAt var37 162)))
(assert (= "`" (CharAt var14 571)))
(assert (= "~" (CharAt var44 237)))
(assert (= "F" (CharAt var27 467)))
(assert (= "g" (CharAt var11 515)))
(assert (= "!" (CharAt var54 763)))
(assert (= "2" (CharAt var9 540)))
(assert (= ":" (CharAt var0 864)))
(assert (= "s" (CharAt var38 483)))
(assert (= "T" (CharAt var17 938)))
(assert (= "," (CharAt var50 30)))
(assert (= "p" (CharAt var17 257)))
(assert (= "D" (CharAt var14 888)))
(assert (= "_" (CharAt var23 583)))
(assert (= "i" (CharAt var4 762)))
(assert (= ":" (CharAt var58 335)))
(assert (= ")" (CharAt var2 24)))
(assert (= "1" (CharAt var37 785)))
(assert (= "^" (CharAt var44 220)))
(assert (= "x" (CharAt var31 302)))
(assert (= "a" (CharAt var34 74)))
(assert (= "s" (CharAt var34 708)))
(assert (= ":" (CharAt var31 49)))
(assert (= "b" (CharAt var40 162)))
(assert (= "Q" (CharAt var17 868)))
(assert (= "!" (CharAt var0 416)))
(assert (= "7" (CharAt var37 943)))
(assert (= "]" (CharAt var38 864)))
(assert (= "`" (CharAt var39 231)))
(assert (= "=" (CharAt var31 248)))
(assert (= "y" (CharAt var32 509)))
(assert (= "Z" (CharAt var34 342)))
(assert (= "C" (CharAt var60 66)))
(assert (= "<" (CharAt var29 98)))
(assert (= "&" (CharAt var42 70)))
(assert (= "m" (CharAt var54 733)))
(assert (= "@" (CharAt var3 52)))
(assert (= "5" (CharAt var58 470)))
(assert (= "J" (CharAt var58 250)))
(assert (= "n" (CharAt var22 508)))
(assert (= "b" (CharAt var42 234)))
(assert (= "#" (CharAt var4 842)))
(assert (= "5" (CharAt var47 96)))
(assert (= "$" (CharAt var35 662)))
(assert (= "G" (CharAt var26 321)))
(assert (= "x" (CharAt var56 638)))
(assert (= "g" (CharAt var58 925)))
(assert (= "f" (CharAt var17 296)))
(assert (= "q" (CharAt var42 152)))
(assert (= "o" (CharAt var57 292)))
(assert (= "P" (CharAt var15 125)))
(assert (= "V" (CharAt var23 741)))
(assert (= "t" (CharAt var6 509)))
(assert (= "n" (CharAt var44 26)))
(assert (= "A" (CharAt var57 311)))
(assert (= "e" (CharAt var1 704)))
(assert (= "F" (CharAt var58 14)))
(assert (= "&" (CharAt var2 858)))
(assert (= "0" (CharAt var26 582)))
(assert (= "R" (CharAt var14 638)))
(assert (= "w" (CharAt var37 772)))
(assert (= "G" (CharAt var10 513)))
(assert (= "#" (CharAt var0 871)))
(assert (= "D" (CharAt var23 223)))
(assert (= "Z" (CharAt var17 836)))
(assert (= "O" (CharAt var0 504)))
(assert (= "e" (CharAt var10 831)))
(assert (= "N" (CharAt var10 32)))
(assert (= "_" (CharAt var26 572)))
(assert (= "*" (CharAt var27 322)))
(assert (= "i" (CharAt var1 344)))
(assert (= "E" (CharAt var54 63)))
(assert (= "O" (CharAt var7 166)))
(assert (= "Z" (CharAt var3 939)))
(assert (= "q" (CharAt var21 499)))
(assert (= "R" (CharAt var58 891)))
(assert (= "A" (CharAt var4 102)))
(assert (= "J" (CharAt var2 979)))
(assert (= "1" (CharAt var18 49)))
(assert (= "G" (CharAt var18 329)))
(assert (= "+" (CharAt var36 348)))
(assert (= "M" (CharAt var58 623)))
(assert (= "6" (CharAt var59 249)))
(assert (= "!" (CharAt var59 755)))
(assert (= "*" (CharAt var47 920)))
(assert (= "^" (CharAt var50 558)))
(assert (= "|" (CharAt var23 62)))
(assert (= "0" (CharAt var19 580)))
(assert (= "c" (CharAt var58 312)))
(assert (= "`" (CharAt var10 887)))
(assert (= "{" (CharAt var30 159)))
(assert (= "o" (CharAt var18 739)))
(assert (= "5" (CharAt var44 945)))
(assert (= "o" (CharAt var29 102)))
(assert (= "n" (CharAt var40 515)))
(assert (= "a" (CharAt var32 388)))
(assert (= "2" (CharAt var45 947)))
(assert (= "T" (CharAt var12 67)))
(assert (= "!" (CharAt var1 950)))
(assert (= "&" (CharAt var9 772)))
(assert (= "H" (CharAt var55 14)))
(assert (= "U" (CharAt var4 1000)))
(assert (= "@" (CharAt var42 57)))
(assert (= "=" (CharAt var3 571)))
(assert (= "L" (CharAt var33 992)))
(assert (= "h" (CharAt var13 704)))
(assert (= "f" (CharAt var5 927)))
(assert (= "!" (CharAt var31 132)))
(assert (= "r" (CharAt var58 686)))
(assert (= "t" (CharAt var11 901)))
(assert (= "h" (CharAt var47 955)))
(assert (= "T" (CharAt var47 763)))
(assert (= "2" (CharAt var42 192)))
(assert (= "}" (CharAt var0 241)))
(assert (= "d" (CharAt var30 538)))
(assert (= "'" (CharAt var40 243)))
(assert (= "H" (CharAt var44 603)))
(assert (= ";" (CharAt var33 182)))
(assert (= "8" (CharAt var25 697)))
(assert (= "D" (CharAt var19 3)))
(assert (= "," (CharAt var36 102)))
(assert (= "f" (CharAt var52 355)))
(assert (= "\\" (CharAt var7 600)))
(assert (= "~" (CharAt var39 799)))
(assert (= "C" (CharAt var0 867)))
(assert (= "," (CharAt var0 659)))
(assert (= "B" (CharAt var36 833)))
(assert (= "4" (CharAt var38 513)))
(assert (= "L" (CharAt var53 225)))
(assert (= "Z" (CharAt var42 682)))
(assert (= "'" (CharAt var55 113)))
(assert (= "=" (CharAt var26 620)))
(assert (= "D" (CharAt var34 872)))
(assert (= "J" (CharAt var6 918)))
(assert (= ":" (CharAt var10 65)))
(assert (= "2" (CharAt var51 143)))
(assert (= "4" (CharAt var36 683)))
(assert (= "b" (CharAt var49 349)))
(assert (= "^" (CharAt var16 840)))
(assert (= "k" (CharAt var20 714)))
(assert (= "Y" (CharAt var53 441)))
(assert (= "5" (CharAt var54 507)))
(assert (= "H" (CharAt var2 969)))
(assert (= "P" (CharAt var9 88)))
(assert (= "F" (CharAt var44 736)))
(assert (= "X" (CharAt var10 212)))
(assert (= "n" (CharAt var14 779)))
(assert (= "O" (CharAt var43 69)))
(assert (= "W" (CharAt var0 585)))
(assert (= "u" (CharAt var17 206)))
(assert (= "8" (CharAt var25 307)))
(assert (= "J" (CharAt var14 561)))
(assert (= "+" (CharAt var37 963)))
(assert (= "?" (CharAt var33 269)))
(assert (= "L" (CharAt var17 188)))
(assert (= "<" (CharAt var0 301)))
(assert (= "V" (CharAt var24 56)))
(assert (= "d" (CharAt var14 527)))
(assert (= "B" (CharAt var26 209)))
(assert (= "v" (CharAt var36 821)))
(assert (= "K" (CharAt var8 213)))
(assert (= "A" (CharAt var60 496)))
(assert (= "R" (CharAt var15 25)))
(assert (= "m" (CharAt var40 74)))
(assert (= "K" (CharAt var20 798)))
(assert (= "_" (CharAt var26 766)))
(assert (= "," (CharAt var50 795)))
(assert (= "&" (CharAt var1 626)))
(assert (= "T" (CharAt var18 350)))
(assert (= "s" (CharAt var5 735)))
(assert (= "S" (CharAt var49 376)))
(assert (= ":" (CharAt var56 363)))
(assert (= "#" (CharAt var55 501)))
(assert (= "X" (CharAt var58 24)))
(assert (= "|" (CharAt var46 673)))
(assert (= "O" (CharAt var59 568)))
(assert (= "\\" (CharAt var36 774)))
(assert (= "-" (CharAt var60 983)))
(assert (= "G" (CharAt var32 19)))
(assert (= "|" (CharAt var52 701)))
(assert (= "_" (CharAt var30 813)))
(assert (= "e" (CharAt var54 778)))
(assert (= "\\" (CharAt var42 613)))
(assert (= "Y" (CharAt var51 451)))
(assert (= "{" (CharAt var58 858)))
(assert (= "l" (CharAt var47 2)))
(assert (= "K" (CharAt var50 327)))
(assert (= "e" (CharAt var2 922)))
(assert (= "`" (CharAt var34 184)))
(assert (= "F" (CharAt var9 380)))
(assert (= "b" (CharAt var56 651)))
(assert (= "\\" (CharAt var27 827)))
(assert (= "7" (CharAt var41 3)))
(assert (= "l" (CharAt var26 925)))
(assert (= "V" (CharAt var12 223)))
(assert (= "q" (CharAt var5 657)))
(assert (= "G" (CharAt var58 162)))
(assert (= "i" (CharAt var3 681)))
(assert (= "q" (CharAt var54 86)))
(assert (= "o" (CharAt var57 167)))
(assert (= "]" (CharAt var50 761)))
(assert (= "l" (CharAt var14 220)))
(assert (= "|" (CharAt var36 266)))
(assert (= "7" (CharAt var8 308)))
(assert (= "y" (CharAt var13 262)))
(assert (= "%" (CharAt var27 949)))
(assert (= "\"" (CharAt var57 663)))
(assert (= "V" (CharAt var3 845)))
(assert (= "l" (CharAt var12 160)))
(assert (= "(" (CharAt var42 569)))
(assert (= "k" (CharAt var45 469)))
(assert (= "(" (CharAt var28 220)))
(assert (= "J" (CharAt var38 265)))
(assert (= "i" (CharAt var42 2)))
(assert (= "e" (CharAt var18 452)))
(assert (= "K" (CharAt var49 499)))
(assert (= "X" (CharAt var7 890)))
(assert (= "w" (CharAt var38 84)))
(assert (= "'" (CharAt var28 597)))
(assert (= "L" (CharAt var16 221)))
(assert (= "(" (CharAt var20 265)))
(assert (= "0" (CharAt var43 782)))
(assert (= "\"" (CharAt var7 498)))
(assert (= "p" (CharAt var46 310)))
(assert (= "W" (CharAt var9 815)))
(assert (= "x" (CharAt var39 40)))
(assert (= "/" (CharAt var16 16)))
(assert (= "n" (CharAt var2 124)))
(assert (= "|" (CharAt var49 395)))
(assert (= "z" (CharAt var12 338)))
(assert (= "]" (CharAt var39 795)))
(assert (= "r" (CharAt var25 818)))
(assert (= "4" (CharAt var5 973)))
(assert (= "G" (CharAt var8 313)))
(assert (= "`" (CharAt var6 686)))
(assert (= "7" (CharAt var57 911)))
(assert (= "<" (CharAt var36 153)))
(assert (= "#" (CharAt var32 241)))
(assert (= "n" (CharAt var18 760)))
(assert (= "W" (CharAt var9 163)))
(assert (= "&" (CharAt var21 859)))
(assert (= "4" (CharAt var32 42)))
(assert (= "~" (CharAt var5 321)))
(assert (= "j" (CharAt var30 886)))
(assert (= "@" (CharAt var44 714)))
(assert (= "0" (CharAt var60 750)))
(assert (= "N" (CharAt var51 757)))
(assert (= "1" (CharAt var41 80)))
(assert (= ";" (CharAt var26 343)))
(assert (= "g" (CharAt var47 56)))
(assert (= ">" (CharAt var60 192)))
(assert (= "C" (CharAt var9 294)))
(assert (= "j" (CharAt var21 244)))
(assert (= "n" (CharAt var47 950)))
(assert (= "F" (CharAt var20 850)))
(assert (= "R" (CharAt var7 383)))
(assert (= "G" (CharAt var54 537)))
(assert (= "z" (CharAt var7 58)))
(assert (= "e" (CharAt var49 295)))
(assert (= "Z" (CharAt var12 495)))
(assert (= "=" (CharAt var32 544)))
(assert (= "S" (CharAt var34 26)))
(assert (= "j" (CharAt var17 550)))
(assert (= "u" (CharAt var37 195)))
(assert (= "6" (CharAt var40 333)))
(assert (= "y" (CharAt var12 536)))
(assert (= "G" (CharAt var41 402)))
(assert (= "M" (CharAt var12 914)))
(assert (= "P" (CharAt var37 120)))
(assert (= "#" (CharAt var50 90)))
(assert (= ":" (CharAt var60 37)))
(assert (= "k" (CharAt var20 435)))
(assert (= ")" (CharAt var2 892)))
(assert (= "i" (CharAt var0 913)))
(assert (= "5" (CharAt var47 735)))
(assert (= "*" (CharAt var59 626)))
(assert (= "t" (CharAt var32 222)))
(assert (= "v" (CharAt var42 270)))
(assert (= "!" (CharAt var6 373)))
(assert (= "F" (CharAt var23 88)))
(assert (= "z" (CharAt var51 716)))
(assert (= "h" (CharAt var0 862)))
(assert (= "+" (CharAt var13 364)))
(assert (= "l" (CharAt var27 489)))
(assert (= "S" (CharAt var23 308)))
(assert (= "p" (CharAt var51 652)))
(assert (= "`" (CharAt var40 907)))
(assert (= ":" (CharAt var34 390)))
(assert (= "Y" (CharAt var1 549)))
(assert (= "C" (CharAt var52 586)))
(assert (= "h" (CharAt var40 266)))
(assert (= "?" (CharAt var23 798)))
(assert (= "+" (CharAt var11 31)))
(assert (= "5" (CharAt var45 845)))
(assert (= "q" (CharAt var40 789)))
(assert (= "p" (CharAt var47 207)))
(assert (= "." (CharAt var25 807)))
(assert (= "?" (CharAt var54 938)))
(assert (= "4" (CharAt var27 187)))
(assert (= "M" (CharAt var8 629)))
(assert (= ")" (CharAt var43 541)))
(assert (= "d" (CharAt var1 322)))
(assert (= "A" (CharAt var60 539)))
(assert (= "c" (CharAt var54 550)))
(assert (= "K" (CharAt var10 82)))
(assert (= "f" (CharAt var41 396)))
(assert (= "b" (CharAt var5 708)))
(assert (= "!" (CharAt var52 442)))
(assert (= "$" (CharAt var57 422)))
(assert (= "*" (CharAt var28 331)))
(assert (= "F" (CharAt var0 707)))
(assert (= "f" (CharAt var60 547)))
(assert (= ")" (CharAt var33 960)))
(assert (= "a" (CharAt var36 397)))
(assert (= "g" (CharAt var52 888)))
(assert (= "r" (CharAt var33 315)))
(assert (= "E" (CharAt var38 78)))
(assert (= ";" (CharAt var54 860)))
(assert (= "O" (CharAt var33 625)))
(assert (= "}" (CharAt var42 374)))
(assert (= "&" (CharAt var36 293)))
(assert (= "H" (CharAt var45 662)))
(assert (= ")" (CharAt var51 460)))
(assert (= "r" (CharAt var32 89)))
(assert (= "0" (CharAt var48 298)))
(assert (= "G" (CharAt var7 574)))
(assert (= "J" (CharAt var48 224)))
(assert (= "3" (CharAt var56 947)))
(assert (= ";" (CharAt var4 995)))
(assert (= "K" (CharAt var42 69)))
(assert (= "{" (CharAt var39 986)))
(assert (= "s" (CharAt var30 365)))
(assert (= "%" (CharAt var34 903)))
(assert (= "Y" (CharAt var59 508)))
(assert (= ":" (CharAt var4 699)))
(assert (= "g" (CharAt var39 509)))
(assert (= "," (CharAt var6 74)))
(assert (= "i" (CharAt var43 352)))
(assert (= "d" (CharAt var26 82)))
(assert (= "1" (CharAt var19 243)))
(assert (= "b" (CharAt var3 163)))
(assert (= ";" (CharAt var60 784)))
(assert (= "2" (CharAt var10 369)))
(assert (= "f" (CharAt var17 60)))
(assert (= "r" (CharAt var43 118)))
(assert (= "t" (CharAt var57 223)))
(assert (= "S" (CharAt var38 869)))
(assert (= "0" (CharAt var6 436)))
(assert (= ")" (CharAt var43 518)))
(check-sat)